c Maximum weighted clique instances generated from exactcolors.
c cutoff: 1766022.
c A clique of value > scalef (1766022) defines an improving stable sets for coloring.
p edge 10 25
e 1 3
e 1 7
e 1 8
e 1 9
e 1 10
e 2 4
e 2 6
e 2 7
e 2 9
e 2 10
e 3 5
e 3 6
e 3 9
e 3 10
e 4 5
e 4 7
e 4 8
e 4 10
e 5 6
e 5 8
e 5 10
e 6 8
e 6 9
e 7 8
e 7 9
n 1 588673
n 2 588673
n 3 588673
n 4 588673
n 5 588673
n 6 588673
n 7 588673
n 8 588673
n 9 588673
n 10 588673
